&CONTROL
/
&SYSTEM
   ntyp             = 5
   nat              = 12
   ibrav            = 0
/
&ELECTRONS
/
&IONS
/
&CELL
/

ATOMIC_SPECIES
Pb 207.2 None
Br 79.904 None
N 14.007 None
H 1.008 None
C 12.011 None

K_POINTS gamma

CELL_PARAMETERS angstrom
5.93560000000000 0.00000000000000 0.00000000000000
0.00000000000000 5.93560000000000 0.00000000000000
0.00000000000000 0.00000000000000 5.93560000000000

ATOMIC_POSITIONS angstrom
Pb 0.0000000000 0.0000000000 0.0000000000 
Br 0.0000000000 0.0000000000 2.9678000000 
Br 2.9678000000 0.0000000000 0.0000000000 
Br 0.0000000000 2.9678000000 0.0000000000 
N 2.9678000000 3.5851024000 3.5851024000 

H 3.2663606800 3.1755460000 4.4819715600 
H 2.6692393200 2.7600540000 4.4819715600 
H 2.6692393200 3.1755460000 1.4536284400 

C 2.9678000000 2.5463724000 2.5463724000 

H 2.2282242400 1.8210420800 2.7719252000 
H 3.7073757600 4.1145579200 2.7719252000 
H 3.7073757600 1.8210420800 3.1636748000 

