&CONTROL
/
&SYSTEM
   ntyp             = 5
   nat              = 145
   ibrav            = 0
/
&ELECTRONS
/
&IONS
/
&CELL
/

ATOMIC_SPECIES
Pb 207.2 None
Br 79.904 None
N 14.007 None
H 1.008 None
C 12.011 None

K_POINTS gamma

CELL_PARAMETERS angstrom
11.66526600000000 0.00000000000000 0.00000000000000
-1.02464034413378 11.62020938982523 0.00000000000000
-0.00029313847791 -0.00026952273640 11.83622099330138

ATOMIC_POSITIONS angstrom
Pb 0.0000441452 0.0005577754 -0.0002367244 
Pb 5.8330428629 0.0005112908 -0.0000710173 
Br 6.1536892047 0.0826568945 2.9588540326 
Br 0.0539581136 0.3265883338 2.9586883255 
Br 5.1015254283 2.8690539325 5.5697350042 
Br 2.9223858201 -0.4762649137 5.5699717286 
Br 5.1023996703 2.8710436865 0.3481742767 
Br 2.9226741332 -0.4758322533 0.3477718452 
N 3.0159935718 2.0405459746 2.9588540326 
H 3.6145727711 1.9280930167 2.1223172776 
H 3.6146378962 1.9285662051 3.7955328221 
H 6.9183342147 2.4034915906 2.9590315759 
H 2.2992129971 1.2923904089 2.9590434121 
Pb 0.0003701721 -0.0000417984 5.9180513155 
Pb 5.8325981212 0.0003184295 5.9179921344 
Pb -0.0002489932 0.0002882527 11.8359842689 
Pb 5.8327497245 0.0002417681 11.8361499760 
Br -0.0532827055 -0.3260676700 8.8769882017 
Br 5.5122939728 -0.0823453988 8.8770118741 
Br 5.1021065318 2.8707741637 12.1843952700 
Br 2.9223809948 -0.4761017760 12.1839928385 
C 2.9552248679 2.4252260523 8.8776273576 
H 3.5705981466 2.3449681370 9.7721615954 
H 3.5710972345 2.3446137815 7.9834126978 
H 7.3006672645 2.3122195192 8.8774853229 
H 2.1745526046 1.6650435788 8.8774261418 
Pb -0.5123378609 5.8104928524 5.9176962289 
Pb -0.5123243550 5.8108135220 0.0002485606 
Pb 5.3204333045 5.8102488237 5.9178856085 
Pb 5.3203508215 5.8107321881 -0.0000828535 
Pb -1.0245961989 11.6207671652 -0.0002367244 
Pb 4.8084025188 11.6207206806 -0.0000710173 
Br -0.1912093474 5.8929358907 2.9589368861 
Br 0.2187577008 2.9395374308 -0.3479020437 
Br 2.3965888260 6.2859369529 -0.3479848972 
Br -1.2428339239 8.6798325942 5.5699717286 
Br -1.2432689441 8.6792078091 0.3480559145 
Br 5.3746677133 6.1370881110 2.9589013775 
Br 5.1290488606 11.7028662843 2.9588540326 
Br 8.2422957249 5.3335144170 5.5699007113 
Br 5.5394820534 8.7517221493 -0.3481742767 
Br 8.2419864983 5.3334473995 0.3480914232 
Br -0.9706822305 11.9467977236 2.9586883255 
Br 1.8977454760 11.1439444761 5.5699717286 
Br 1.8980337891 11.1443771366 0.3477718452 
C 2.3656356722 3.3852598561 2.9583924200 
C 2.6523602045 8.4638142708 2.9583095664 
C 7.6859982354 9.1953296907 2.9583805837 
N 7.6004975150 3.1836027337 2.9587711790 
N 1.2555445786 8.9934401633 2.9587948515 
H 2.7864285994 7.8581893287 2.0636924751 
H 1.7506772225 3.4655758749 2.0637516562 
H 2.7867817804 7.8577418860 3.8526070798 
H 1.7502106804 3.4658256426 3.8527609506 
H 3.1468554145 4.1451866850 2.9585936357 
H 7.4358973923 3.7696870436 2.1222107517 
H 7.4364447300 3.7697186606 3.7955801670 
H 1.0910485793 9.5799311830 2.1221278981 
H 1.0915979642 9.5799395576 3.7955801670 
H 0.5734428377 8.2136892478 2.9590079034 
H 7.0709941495 9.2756340895 2.0637279837 
H 7.0704991543 9.2759419588 3.8527136058 
H 3.3408558255 9.3086383492 2.9585226184 
H 7.6195172331 7.1024602427 2.9590670845 
Pb -0.5126174934 5.8105439992 11.8364695539 
Pb 5.3200576830 5.8104626653 11.8361381398 
Pb -1.0242701721 11.6201675914 5.9180513155 
Pb 4.8079577770 11.6205278193 5.9179921344 
Pb -1.0248893374 11.6204976425 11.8359842689 
Pb 4.8081093803 11.6204511579 11.8361499760 
Br 5.2665742262 5.4833862892 8.8771657450 
Br 0.2185236796 2.9396540976 6.2656811261 
Br 2.3966171898 6.2858560722 6.2657758159 
Br 0.2184645623 2.9392679080 11.4883189496 
Br 2.3962956875 6.2856674302 11.4882360961 
Br -1.0779230496 11.2941417199 8.8769882017 
Br -0.8328898252 5.7275966129 8.8770237103 
Br -1.2435620826 8.6789382864 12.1842769078 
Br 5.5386703575 8.7495263897 6.2656219450 
Br 5.5391889150 8.7514526266 11.4880467166 
Br 8.2416933598 5.3331778768 12.1843124165 
Br 4.4876536286 11.5378639911 8.8770118741 
Br 1.8977406506 11.1441076138 12.1839928385 
C 7.9892190037 3.1566717501 8.8777338836 
C 1.6442998028 8.9667880652 8.8777338836 
N 2.3046707118 3.7699166969 8.8770118741 
N 3.0407472640 8.4371040722 8.8772249261 
N 7.6252534992 9.5798703320 8.8768816757 
H 1.7065667124 3.8824045135 9.7136314826 
H 1.7064905569 3.8817918867 8.0402383948 
H 3.0219748052 4.5179560610 8.8767988221 
H 0.9557480639 8.1223358346 8.8774734867 
H 7.8552492139 3.7626336799 9.7722799576 
H 7.8549330768 3.7630578811 7.9834126978 
H 7.4948846657 7.4751947556 8.8773787970 
H 3.2055453014 7.8508919395 9.7138090259 
H 7.0268075021 9.6925324513 9.7135249566 
H 3.2049441290 7.8509416629 8.0404869554 
H 7.0268703048 9.6919314444 8.0401437050 
H 3.7231389823 9.2170060513 8.8769763654 
H 1.5103300130 9.5727499950 9.7722799576 
H 1.5100149009 9.5731625763 7.9834008616 
Pb 11.6653101452 0.0005577754 -0.0002367244 
Br 8.7429374985 0.4761460066 -0.3481150956 
Br 11.7192241136 0.3265883338 2.9586883255 
C 8.9971819838 2.6537444357 2.9583450751 
H 9.1312469106 2.0480265320 2.0637279837 
H 9.1316254726 2.0475558499 3.8525952436 
Pb 11.6656361721 -0.0000417984 5.9180513155 
Pb 11.6650170068 0.0002882527 11.8359842689 
Br 11.6119832945 -0.3260676700 8.8769882017 
Br 8.7414738154 0.4753911578 6.2654680741 
Br 8.7426443600 0.4758764839 11.4881058977 
N 9.3856001782 2.6268134545 8.8772012536 
H 9.5504655261 2.0407640033 9.7138445346 
H 9.5499014008 2.0407904882 8.0404396105 
Pb 11.1529281391 5.8104928524 5.9176962289 
Pb 11.1529416450 5.8108135220 0.0002485606 
Pb 10.6406698011 11.6207671652 -0.0002367244 
Br 11.4740566526 5.8929358907 2.9589368861 
Br 11.8840237008 2.9395374308 -0.3479020437 
Br 10.4224320761 8.6798325942 5.5699717286 
Br 10.4219970559 8.6792078091 0.3480559145 
Br 7.7182971543 12.0963553965 -0.3481150956 
Br 10.6945837695 11.9467977236 2.9586883255 
N 8.3363094728 7.8506158081 2.9588895412 
H 9.6857005421 3.4984406926 2.9585226184 
H 8.4671469618 9.9552681400 2.9585699633 
H 8.9348993130 7.7381744707 2.1223409501 
H 8.9349390583 7.7386708995 3.7955564946 
Pb 11.1526485066 5.8105439992 11.8364695539 
Pb 10.6409958279 11.6201675914 5.9180513155 
Pb 10.6403766626 11.6204976425 11.8359842689 
Br 11.8837896796 2.9396540976 6.2656811261 
Br 11.8837305623 2.9392679080 11.4883189496 
Br 10.5873429504 11.2941417199 8.8769882017 
Br 10.8323761748 5.7275966129 8.8770237103 
Br 7.7168334713 12.0956005476 6.2654680741 
Br 10.4217039174 8.6789382864 12.1842769078 
Br 7.7180040158 12.0960858737 11.4881058977 
C 8.2755133430 8.2353423696 8.8775326678 
H 10.0680156202 3.4068432548 8.8770000379 
H 8.8908773988 8.1551890351 9.7721142505 
H 8.8914587745 8.1546952376 7.9833416804 
H 8.3422825140 10.3281188607 8.8766331150 

